n = 10; 

m=14; 


69	78	33	71	64	25	41	18	61	19
58	9	26	53	75	20	5	65	9	4
63	32	69	65	49	90	21	24	57	59
49	22	2	7	56	73	75	41	75	6
65	53	67	25	19	77	79	17	52	73
52	74	16	37	38	78	37	46	5	8
61	60	36	22	65	32	73	79	65	18
17	14	1	24	25	27	11	75	32	65
33	66	2	25	54	44	58	61	17	53
66	78	23	17	45	40	45	9	23	15
53	1	68	68	62	32	48	53	37	33
56	18	31	75	27	33	73	50	57	74
46	16	56	45	57	9	3	47	41	24
63	32	69	65	49	90	21	24	57	59



 

 
